
c--------------------------------------------------------------
c	Ferhat Erata
c	CPSC 454/554
c	Tue Nov 26 2019	21:13:20
c--------------------------------------------------------------
s UNSATISFIABLE
c--------------------------------------------------------------
c statistics of ../../bench2/sat/100-2000.cnf:
c [ mem_used: 112812, conflicts: 0, max_lemmas: 2000 ]
c--------------------------------------------------------------
c	Normal termination.
